language Essence 1.3
$ generated by bacp-gen.pl with seed 3911959975
$ edge probability 0.0743
$ course loads in range 2..6
letting n_courses be 138
letting n_periods be 27
letting load_per_period_lb be 8
letting load_per_period_ub be 45
letting courses_per_period_lb be 5
letting courses_per_period_ub be 9
letting course_load be function(
1 --> 4,
2 --> 2,
3 --> 4,
4 --> 3,
5 --> 4,
6 --> 6,
7 --> 5,
8 --> 3,
9 --> 4,
10 --> 3,
11 --> 6,
12 --> 6,
13 --> 4,
14 --> 4,
15 --> 3,
16 --> 2,
17 --> 5,
18 --> 3,
19 --> 5,
20 --> 3,
21 --> 3,
22 --> 2,
23 --> 2,
24 --> 4,
25 --> 4,
26 --> 4,
27 --> 2,
28 --> 2,
29 --> 4,
30 --> 2,
31 --> 2,
32 --> 2,
33 --> 3,
34 --> 5,
35 --> 2,
36 --> 3,
37 --> 4,
38 --> 6,
39 --> 2,
40 --> 2,
41 --> 2,
42 --> 4,
43 --> 2,
44 --> 4,
45 --> 3,
46 --> 2,
47 --> 3,
48 --> 2,
49 --> 4,
50 --> 4,
51 --> 3,
52 --> 4,
53 --> 6,
54 --> 5,
55 --> 6,
56 --> 5,
57 --> 6,
58 --> 5,
59 --> 5,
60 --> 5,
61 --> 2,
62 --> 3,
63 --> 6,
64 --> 5,
65 --> 3,
66 --> 5,
67 --> 6,
68 --> 4,
69 --> 4,
70 --> 3,
71 --> 6,
72 --> 3,
73 --> 3,
74 --> 3,
75 --> 2,
76 --> 4,
77 --> 5,
78 --> 3,
79 --> 2,
80 --> 2,
81 --> 2,
82 --> 6,
83 --> 5,
84 --> 2,
85 --> 2,
86 --> 2,
87 --> 2,
88 --> 4,
89 --> 4,
90 --> 4,
91 --> 5,
92 --> 2,
93 --> 5,
94 --> 5,
95 --> 6,
96 --> 6,
97 --> 4,
98 --> 3,
99 --> 2,
100 --> 2,
101 --> 4,
102 --> 2,
103 --> 2,
104 --> 4,
105 --> 4,
106 --> 2,
107 --> 3,
108 --> 3,
109 --> 2,
110 --> 4,
111 --> 4,
112 --> 3,
113 --> 5,
114 --> 2,
115 --> 5,
116 --> 4,
117 --> 6,
118 --> 2,
119 --> 4,
120 --> 6,
121 --> 2,
122 --> 2,
123 --> 5,
124 --> 3,
125 --> 4,
126 --> 3,
127 --> 3,
128 --> 4,
129 --> 4,
130 --> 2,
131 --> 5,
132 --> 2,
133 --> 3,
134 --> 3,
135 --> 4,
136 --> 5,
137 --> 4,
138 --> 6
)
$ layers: 44 56 38
$ max edges per layer: 2464 2128
$ generating 341 edges
letting prerequisite be relation (
(8,45),
(36,46),
(4,47),
(17,48),
(21,49),
(9,50),
(42,51),
(40,52),
(39,53),
(22,54),
(37,55),
(5,56),
(24,57),
(37,58),
(10,59),
(26,60),
(2,61),
(1,62),
(8,63),
(40,64),
(20,65),
(35,66),
(32,67),
(40,68),
(37,69),
(43,70),
(20,71),
(16,72),
(6,73),
(21,74),
(5,75),
(31,76),
(7,77),
(29,78),
(27,79),
(42,80),
(5,81),
(1,82),
(24,83),
(5,84),
(38,85),
(42,86),
(18,87),
(34,88),
(34,89),
(26,90),
(21,91),
(12,92),
(1,93),
(23,94),
(14,95),
(28,96),
(35,97),
(20,98),
(30,99),
(44,100),
(62,101),
(95,102),
(88,103),
(79,104),
(55,105),
(51,106),
(82,107),
(63,108),
(61,109),
(86,110),
(67,111),
(82,112),
(48,113),
(69,114),
(57,115),
(54,116),
(82,117),
(52,118),
(79,119),
(90,120),
(62,121),
(93,122),
(88,123),
(65,124),
(87,125),
(50,126),
(99,127),
(81,128),
(97,129),
(64,130),
(93,131),
(73,132),
(100,133),
(76,134),
(82,135),
(60,136),
(57,137),
(93,138),
(88,105),
(3,96),
(40,66),
(89,101),
(74,112),
(51,105),
(23,50),
(57,119),
(24,92),
(43,90),
(29,64),
(90,113),
(38,96),
(70,132),
(32,81),
(48,129),
(68,119),
(52,121),
(91,131),
(22,97),
(6,59),
(99,124),
(57,112),
(67,137),
(71,112),
(64,125),
(75,107),
(56,108),
(94,112),
(66,132),
(78,119),
(59,107),
(33,83),
(82,123),
(57,130),
(19,53),
(32,76),
(54,137),
(21,71),
(5,90),
(39,97),
(22,86),
(43,57),
(20,52),
(14,98),
(96,112),
(19,92),
(80,134),
(20,54),
(43,60),
(79,109),
(81,107),
(12,98),
(82,103),
(56,124),
(74,119),
(67,120),
(30,46),
(76,135),
(86,102),
(55,133),
(76,127),
(42,83),
(56,130),
(27,96),
(82,124),
(2,86),
(59,111),
(17,69),
(16,94),
(7,68),
(36,65),
(33,99),
(32,65),
(19,56),
(89,132),
(47,112),
(15,59),
(30,51),
(38,92),
(13,93),
(27,85),
(7,80),
(8,99),
(43,64),
(60,127),
(8,47),
(17,56),
(38,82),
(58,126),
(79,118),
(99,111),
(68,137),
(26,62),
(63,128),
(86,132),
(56,135),
(5,63),
(23,64),
(46,132),
(98,132),
(38,59),
(33,73),
(57,104),
(71,137),
(60,116),
(38,49),
(36,91),
(90,118),
(75,108),
(13,87),
(32,63),
(59,118),
(38,55),
(44,83),
(95,121),
(19,59),
(21,100),
(81,125),
(68,114),
(80,111),
(66,133),
(100,132),
(10,69),
(51,115),
(80,130),
(31,55),
(37,75),
(30,45),
(64,106),
(30,74),
(55,114),
(74,126),
(34,94),
(28,74),
(84,117),
(65,120),
(95,122),
(92,131),
(3,45),
(42,50),
(50,103),
(13,89),
(30,100),
(86,125),
(26,59),
(60,108),
(12,72),
(23,77),
(36,84),
(11,92),
(39,95),
(97,124),
(21,64),
(34,97),
(65,105),
(72,120),
(4,82),
(19,65),
(98,118),
(13,99),
(19,45),
(67,117),
(36,81),
(88,106),
(34,61),
(87,106),
(87,115),
(49,118),
(69,127),
(20,82),
(18,56),
(39,79),
(63,127),
(2,59),
(59,103),
(34,60),
(36,85),
(3,98),
(5,69),
(16,47),
(10,84),
(4,50),
(26,95),
(61,129),
(32,74),
(11,98),
(86,112),
(82,113),
(89,124),
(2,76),
(93,118),
(49,123),
(82,133),
(76,105),
(80,124),
(30,62),
(89,119),
(87,136),
(38,79),
(45,113),
(27,95),
(77,107),
(35,92),
(63,131),
(73,135),
(50,115),
(37,67),
(100,124),
(45,137),
(90,131),
(96,125),
(5,100),
(15,88),
(43,93),
(12,91),
(40,74),
(1,50),
(31,48),
(38,68),
(10,73),
(84,132),
(89,126),
(23,84),
(32,79),
(65,129),
(61,115),
(99,137),
(30,88),
(80,126),
(35,47),
(69,133),
(28,93),
(1,46),
(39,58),
(3,73),
(63,133),
(91,104),
(13,70),
(5,64),
(13,96),
(77,116),
(82,136),
(10,64),
(35,73),
(20,51),
(64,126)
)
